FILENAME:   /home/mcs001/s132664/testsets/IP/miplib2017/neos-1593097.mps.gz
SETTINGS:   settings_isopr_ostrowskidynamicbranching_avoidsubtreenodes
TIMELIMIT:  7200
OUTPUTNAME: final_miplib_symretope_if_extended_generating_set_cpx_v802__settings_isopr_ostrowskidynamicbranching_avoidsubtreenodes__0__
BINNAME:    bin/symmetries.linux.x86_64.gnu.opt.cpx
BASENAME:   neos-1593097.mps.gz
SEED:       0
@01 /home/mcs001/s132664/testsets/IP/miplib2017/neos-1593097.mps.gz ===========
@02 neos-1593097.mps.gz
@03 1686574000
SCIP version 8.0.2 [precision: 8 byte] [memory: block] [mode: optimized] [LP solver: CPLEX 20.1.0.0] [GitHash: 5f0473c]
Copyright (C) 2002-2022 Konrad-Zuse-Zentrum fuer Informationstechnik Berlin (ZIB)

Symmetry handling routines - (c) Marc Pfetsch, Thomas Rehn, Christopher Hojny.
[GitHash: a1587cb]


Turned off presolver <gateextraction>.
reading parameter file <../settings/settings_isopr_ostrowskidynamicbranching_avoidsubtreenodes.set> ...

Changed settings:
limits/time = 7200
limits/restarts = 0
constraints/orbitope/sepafreq = -1
constraints/orbitope/propfreq = 1
presolving/gateextraction/maxrounds = 0
propagating/isoprune/avoidsubtreenodes = TRUE
useisoprune = TRUE


solving problem ...

original problem has 18460 variables (18200 bin, 0 int, 0 impl, 260 cont) and 798 constraints
presolving:
(round 1, fast)       52 del vars, 52 del conss, 260 add conss, 260 chg bounds, 0 chg sides, 0 chg coeffs, 0 upgd conss, 0 impls, 330 clqs
(round 2, fast)       260 del vars, 312 del conss, 260 add conss, 260 chg bounds, 0 chg sides, 0 chg coeffs, 0 upgd conss, 0 impls, 330 clqs
(round 3, fast)       260 del vars, 312 del conss, 260 add conss, 260 chg bounds, 208 chg sides, 0 chg coeffs, 0 upgd conss, 0 impls, 330 clqs
(round 4, exhaustive) 260 del vars, 520 del conss, 260 add conss, 260 chg bounds, 208 chg sides, 0 chg coeffs, 0 upgd conss, 0 impls, 330 clqs
(round 5, exhaustive) 260 del vars, 520 del conss, 260 add conss, 260 chg bounds, 208 chg sides, 0 chg coeffs, 538 upgd conss, 0 impls, 330 clqs
(round 6, medium)     6292 del vars, 520 del conss, 260 add conss, 260 chg bounds, 2912 chg sides, 2704 chg coeffs, 538 upgd conss, 0 impls, 330 clqs
(round 7, medium)     7072 del vars, 520 del conss, 260 add conss, 260 chg bounds, 3068 chg sides, 2860 chg coeffs, 538 upgd conss, 0 impls, 330 clqs
(round 8, medium)     10816 del vars, 728 del conss, 260 add conss, 260 chg bounds, 3068 chg sides, 2860 chg coeffs, 538 upgd conss, 0 impls, 226 clqs
   (2.0s) probing: 1000/7644 (13.1%) - 0 fixings, 0 aggregations, 40979 implications, 0 bound changes
   (2.0s) probing: 1001/7644 (13.1%) - 0 fixings, 0 aggregations, 41054 implications, 0 bound changes
   (2.0s) probing aborted: 1000/1000 successive useless probings
Required symmetry:			(1 bin, 0 int, 0 cont); (fixed: 0 bin, 1 int, 0 cont)
Time for symmetry detection:		0.15 	(matrix graph, 12464 nodes, 50128 edges)
Number of generators:			58 	(max: 1500)
Log10 of symmetry group order:		70.2
Number of vars moved by some symmetry:	7644
Total time for symmetry detection:	0.15

Turned off presolver <domcol>.
Turned off presolver <components>.

presolving (9 rounds: 9 fast, 6 medium, 3 exhaustive):
 10816 deleted vars, 728 deleted constraints, 260 added constraints, 260 tightened bounds, 0 added holes, 3068 changed sides, 2860 changed coefficients
 0 implications, 41280 cliques
presolved problem has 7644 variables (7644 bin, 0 int, 0 impl, 0 cont) and 331 constraints
    104 constraints of type <knapsack>
    226 constraints of type <setppc>
      1 constraints of type <symmetries>
transformed objective value is always integral (scale: 1)
Presolving Time: 2.07

 time | node  | left  |LP iter|LP it/n|mem/heur|mdpt |frac |vars |cons |cols |rows |cuts |confs|strbr|  dualbound   | primalbound  |  gap   
  2.3s|     1 |     0 |    90 |     - |   138M |   0 | 135 |7644 | 473 |7644 | 330 |   0 | 142 |   0 | 1.958100e+04 |      --      |    Inf 
  3.0s|     1 |     2 |  1065 |     - |   141M |   0 | 135 |7644 | 474 |7644 | 330 |   0 | 143 |  11 | 1.958100e+04 |      --      |    Inf 
d58.9s|    87 |    86 |  3450 |  27.7 |veclendi|  41 |   - |7644 | 592 |7644 | 330 |   0 | 261 |  11 | 1.958100e+04 | 2.316400e+04 |  18.30%
 66.5s|   100 |    99 |  3541 |  25.0 |   152M |  41 |  62 |7644 | 592 |7644 | 330 |   0 | 261 |  11 | 1.958100e+04 | 2.316400e+04 |  18.30%
r 701s|   185 |   112 |  4097 |  16.5 |shifting|  80 |   8 |7644 | 943 |7644 | 330 |   0 | 612 |  11 | 1.958100e+04 | 2.315700e+04 |  18.26%
* 840s|   192 |   111 |  4251 |  16.7 |    LP  |  80 |   - |7644 |1160 |7644 | 330 |   0 | 829 |  66 | 1.958100e+04 | 2.315300e+04 |  18.24%
  924s|   200 |   113 |  4287 |  16.2 |   158M |  80 |  20 |7644 |1190 |7644 | 330 |   0 | 859 |  66 | 1.958100e+04 | 2.315300e+04 |  18.24%
 2093s|   300 |   113 |  4950 |  13.0 |   163M |  80 |   - |7644 |1639 |   0 |   0 |   0 |1323 |  66 | 1.958100e+04 | 2.315300e+04 |  18.24%
 2489s|   400 |   117 |  6068 |  12.5 |   170M |  80 |  20 |7644 |2068 |7644 | 330 |   0 |1754 |  66 | 1.958100e+04 | 2.315300e+04 |  18.24%
 3158s|   500 |   117 |  6914 |  11.7 |   175M |  80 |   - |7644 |2515 |   0 |   0 |   0 |2206 |  66 | 1.958100e+04 | 2.315300e+04 |  18.24%
 3651s|   600 |   121 |  8469 |  12.4 |   181M |  80 |  20 |7644 |2926 |7644 | 330 |   0 |2626 |  66 | 1.958100e+04 | 2.315300e+04 |  18.24%
 4238s|   700 |   129 |  9754 |  12.4 |   185M |  80 |  34 |7644 |3389 |7644 | 330 |   0 |3106 |  80 | 1.958100e+04 | 2.315300e+04 |  18.24%
 4774s|   800 |   129 | 13541 |  15.6 |   200M |  82 |  22 |7644 |7943 |7644 | 330 |   0 |7670 | 724 | 1.958100e+04 | 2.315300e+04 |  18.24%
 5217s|   900 |   145 | 23688 |  25.2 |   218M |  86 |  20 |7644 |  10k|7644 | 330 |   0 |  27k|3079 | 1.958100e+04 | 2.315300e+04 |  18.24%
 5563s|  1000 |   157 | 77906 |  76.9 |   229M |  88 |  14 |7644 |  10k|7644 | 330 |   0 | 159k|  17k| 1.958100e+04 | 2.315300e+04 |  18.24%
 time | node  | left  |LP iter|LP it/n|mem/heur|mdpt |frac |vars |cons |cols |rows |cuts |confs|strbr|  dualbound   | primalbound  |  gap   
 6058s|  1100 |   171 |116236 | 104.8 |   237M | 113 |  18 |7644 |  10k|7644 | 330 |   0 | 247k|  26k| 1.958100e+04 | 2.315300e+04 |  18.24%
 6432s|  1200 |   185 |184726 | 153.2 |   250M | 113 |   - |7644 |  10k|   0 |   0 |   0 | 379k|  41k| 1.958100e+04 | 2.315300e+04 |  18.24%
 6919s|  1300 |   199 |232618 | 178.3 |   268M | 113 |  14 |7644 |  10k|7644 | 330 |   0 | 473k|  50k| 1.958100e+04 | 2.315300e+04 |  18.24%

SCIP Status        : solving was interrupted [time limit reached]
Solving Time (sec) : 7201.22
Solving Nodes      : 1358
Primal Bound       : +2.31530000000000e+04 (10 solutions)
Dual Bound         : +1.95810000000000e+04
Gap                : 18.24 %

Number of variables fixed to 0 by isomorphism pruning:	  4412
Number of variables fixed to 1 by isomorphism pruning:	     0
@04 1686581201
